
Log started (V11.0.0) Wed Apr 23 17:02:19 2008

Tried aggregator 1 time.
Reduced MIP has 540 rows, 20001 columns, and 40040 nonzeros.
Presolve time =    0.16 sec.
Clique table members: 500.
MIP emphasis: balance optimality and feasibility.
MIP search method: dynamic search.
Parallel mode: none, using 1 thread.
Root relaxation solution time =    1.33 sec.

        Nodes                                         Cuts/
   Node  Left     Objective  IInf  Best Integer     Best Node    ItCnt     Gap

*     0+    0                        74523.0000     1275.0364      912   98.29%
*     0+    0                         1339.0000     1275.0364      912    4.78%
      0     0     1276.0000    78     1339.0000      Fract: 7      959    4.71%
*     0+    0                         1335.0000     1276.0000      959    4.42%
      0     0     1276.1210    83     1335.0000     Covers: 2     1119    4.41%
      0     0     1276.3430    88     1335.0000     Covers: 3     1186    4.39%
*     0+    0                         1331.0000     1276.3430     1186    4.11%
      0     0     1277.0161    86     1331.0000     Covers: 1     1253    4.06%
*     0+    0                         1330.0000     1277.0161     1253    3.98%
      0     0     1277.0267    87     1330.0000     Covers: 1     1257    3.98%
*     0+    0                         1329.0000     1277.0267     1257    3.91%
      0     0     1277.0267    89     1329.0000     Covers: 1     1261    3.91%
*     0+    0                         1327.0000     1277.0267     1261    3.77%
*     0+    0                         1326.0000     1277.0267     1261    3.69%
*     0+    0                         1325.0000     1277.0267     1261    3.62%
      0     2     1277.0267    89     1325.0000     1277.0267     1261    3.62%
    100   101     1278.0000    79     1325.0000     1277.0336     3644    3.62%
*   200+  187                         1324.0000     1277.0336    10517    3.55%
*   200+  187                         1323.0000     1277.0336    10517    3.47%
    200   188     1279.8778    82     1323.0000     1277.0336    10517    3.47%
    300   271     1280.0000    77     1323.0000     1277.0336    16908    3.47%
    400   358     1281.0000    78     1323.0000     1277.0336    21885    3.47%
    500   439     1283.0000    75     1323.0000     1277.0336    29167    3.47%
*   507+  442                         1322.0000     1277.0336    29767    3.40%
    600   466     1285.0000    91     1322.0000     1283.2997    39370    2.93%
    700   494     1285.0000   103     1322.0000     1283.2997    44957    2.93%
    800   519     1286.0000    79     1322.0000     1283.2997    57375    2.93%
    900   536     1286.0000   102     1322.0000     1283.2997    67852    2.93%
   1000   552     1287.0000    87     1322.0000     1283.2997    79986    2.93%
Elapsed time = 282.58 sec. (tree size =  7.15 MB, solutions = 12)
   1100   573     1289.0000    78     1322.0000     1283.2997    89662    2.93%
   1200   640     1291.0000    77     1322.0000     1283.2997    96116    2.93%
   1300   717     1293.2785    79     1322.0000     1283.2997   100086    2.93%
   1400   791     1295.2044    82     1322.0000     1283.2997   103233    2.93%
   1500   858     1295.0000    78     1322.0000     1283.2997   108194    2.93%
   1600   920     1295.0000    73     1322.0000     1283.2997   114507    2.93%
   1700   980     1296.2789    87     1322.0000     1283.2997   122099    2.93%
   1800  1046     1298.0000    76     1322.0000     1283.2997   129293    2.93%
   1900  1119     1297.8131    78     1322.0000     1283.2997   138651    2.93%
   2000  1188     1297.4828    71     1322.0000     1283.2997   148394    2.93%
Elapsed time = 413.52 sec. (tree size = 16.74 MB, solutions = 12)
   2100  1249     1297.0000    68     1322.0000     1283.2997   153741    2.93%
   2200  1310     1297.0000    67     1322.0000     1283.2997   160466    2.93%
   2300  1378     1299.0000    69     1322.0000     1283.2997   164104    2.93%
   2400  1452     1300.9844    67     1322.0000     1283.2997   166914    2.93%
   2500  1518     1301.0000    68     1322.0000     1283.2997   171676    2.93%
   2600  1588     1319.0000    48     1322.0000     1283.2997   175087    2.93%
   2700  1657     1308.0000    59     1322.0000     1283.2997   178338    2.93%
   2800  1734     1303.0000    68     1322.0000     1283.2997   182094    2.93%
   2900  1804     1317.0000    46     1322.0000     1283.2997   184993    2.93%
   3000  1866     1305.7448    69     1322.0000     1283.2997   188394    2.93%
Elapsed time = 495.30 sec. (tree size = 26.92 MB, solutions = 12)
   3100  1930     1306.0000    69     1322.0000     1283.2997   191576    2.93%
   3200  1981     1306.0000    64     1322.0000     1283.2997   195559    2.93%
   3300  2039     1307.0000    68     1322.0000     1283.2997   198595    2.93%
   3400  2108     1310.3082    65     1322.0000     1283.2997   201126    2.93%
   3500  2168     1310.0000    66     1322.0000     1283.2997   204602    2.93%
   3600  2229     1312.0000    64     1322.0000     1283.2997   207666    2.93%
   3700  2298     1313.0000    58     1322.0000     1283.2997   210126    2.93%
   3800  2364     1314.0000    58     1322.0000     1283.2997   213914    2.93%
   3900  2428     1316.0000    60     1322.0000     1283.2997   216625    2.93%
   4000  2491     1317.0000    55     1322.0000     1283.2997   218929    2.93%
Elapsed time = 563.16 sec. (tree size = 36.34 MB, solutions = 12)
   4100  2546     1320.0000    54     1322.0000     1283.2997   222346    2.93%
   4200  2551     1321.0000    55     1322.0000     1283.2997   224548    2.93%
   4300  2618     1284.0000   142     1322.0000     1283.4518   235238    2.92%
   4400  2716     1286.0000    79     1322.0000     1283.4518   241029    2.92%
   4500  2815     1286.0000    95     1322.0000     1283.4518   247783    2.92%
   4600  2913     1286.0000   104     1322.0000     1283.4518   258607    2.92%
   4700  3005     1287.0000    77     1322.0000     1283.4518   268390    2.92%
   4800  3089     1287.0000    87     1322.0000     1283.4518   276783    2.92%
   4900  3159     1288.0000    71     1322.0000     1283.4518   280709    2.92%
   5000  3254     1290.0000    69     1322.0000     1283.4518   284036    2.92%
Elapsed time = 746.75 sec. (tree size = 47.03 MB, solutions = 12)
   5100  3341     1290.0000    79     1322.0000     1283.4518   288346    2.92%
   5200  3426     1291.0000    71     1322.0000     1283.4518   291487    2.92%
   5300  3509     1292.0000    73     1322.0000     1283.4518   296218    2.92%
   5400  3592     1293.0000    71     1322.0000     1283.4518   301464    2.92%
   5500  3679     1293.0000    69     1322.0000     1283.4518   309980    2.92%
   5600  3762     1294.0000    73     1322.0000     1283.4518   315375    2.92%
   5700  3842     1295.0000    68     1322.0000     1283.4518   319426    2.92%
   5800  3926     1297.0000    69     1322.0000     1283.4518   321814    2.92%
   5900  4006     1298.0000    74     1322.0000     1283.4518   324787    2.92%
   6000  4089     1298.0000    65     1322.0000     1283.4518   327549    2.92%
Elapsed time = 841.84 sec. (tree size = 59.89 MB, solutions = 12)
   6100  4179     1299.0000    74     1322.0000     1283.4518   330348    2.92%
   6200  4266     1301.0000    68     1322.0000     1283.4518   334162    2.92%
   6300  4351     1302.0000    69     1322.0000     1283.4518   338927    2.92%
   6400  4433     1304.9301    72     1322.0000     1283.4518   346352    2.92%
   6500  4513     1312.0130    62     1322.0000     1283.4518   349293    2.92%
   6600  4592     1313.0000    56     1322.0000     1283.4518   351260    2.92%
   6700  4665     1314.0000    59     1322.0000     1283.4518   353628    2.92%
   6800  4731     1284.0000   240     1322.0000     1284.0000   452903    2.87%
   6900  4826     1285.0000   143     1322.0000     1284.0000   510832    2.87%
   7000  4925     1285.0000   125     1322.0000     1284.0000   518109    2.87%
Elapsed time = 1443.13 sec. (tree size = 73.77 MB, solutions = 12)
   7100  5018     1287.0000   104     1322.0000     1284.0000   526970    2.87%
   7200  5114     1287.0000   127     1322.0000     1284.0000   533817    2.87%
   7300  5210     1288.0000    81     1322.0000     1284.0000   538190    2.87%
   7400  5307     1288.0000    94     1322.0000     1284.0000   543498    2.87%
   7500  5401     1289.0000    86     1322.0000     1284.0000   548581    2.87%
   7600  5486     1292.0000    74     1322.0000     1284.0000   556736    2.87%
   7700  5573     1293.0000    77     1322.0000     1284.0000   559416    2.87%
   7800  5663     1294.0000    74     1322.0000     1284.0000   561897    2.87%
   7900  5752     1298.0000    70     1322.0000     1284.0000   564399    2.87%
   8000  5829     1302.6218    72     1322.0000     1284.0000   567427    2.87%
Elapsed time = 1618.31 sec. (tree size = 92.91 MB, solutions = 12)
   8100  5899     1304.2062    70     1322.0000     1284.0000   571310    2.87%
   8200  5974     1305.0079    64     1322.0000     1284.0000   573977    2.87%
   8300  6050     1307.0000    62     1322.0000     1284.0000   576688    2.87%
   8400  6118     1312.6292    63     1322.0000     1284.0000   578906    2.87%
   8500  6189     1317.3657    60     1322.0000     1284.0000   581110    2.87%
   8600  6250     1286.0000   225     1322.0000     1284.0000   672383    2.87%
   8700  6348     1288.0000   113     1322.0000     1284.0000   700957    2.87%
   8800  6445     1288.0000   168     1322.0000     1284.0000   727765    2.87%
   8900  6544     1290.0000   114     1322.0000     1284.0000   734536    2.87%
   9000  6642     1286.0000   141     1322.0000     1284.0000   784723    2.87%
Elapsed time = 2340.11 sec. (tree size = 110.93 MB, solutions = 12)
   9100  6742     1286.0000   169     1322.0000     1284.0000   793448    2.87%
   9200  6835     1286.0000   151     1322.0000     1284.0000   857651    2.87%
   9300  6934     1286.0000   143     1322.0000     1284.0000   873885    2.87%
   9400  7029     1287.0000    93     1322.0000     1284.0000   891574    2.87%
   9500  7129     1287.0000   117     1322.0000     1284.0000   898575    2.87%
   9600  7228     1287.0000   128     1322.0000     1284.0000   906818    2.87%
   9700  7320     1288.0000   112     1322.0000     1284.0000   921863    2.87%
   9800  7416     1289.0000    93     1322.0000     1284.0000   930802    2.87%
   9900  7507     1291.2360    97     1322.0000     1284.0000   940020    2.87%
  10000  7601     1291.0000    80     1322.0000     1284.0000   955371    2.87%
Elapsed time = 2837.55 sec. (tree size = 133.64 MB, solutions = 12)
Nodefile size =  6.42 MB (3.51 MB after compression)
  10100  7684     1292.0000    75     1322.0000     1284.0000   975720    2.87%
  10200  7762     1293.0000    78     1322.0000     1284.0000  1005579    2.87%
  10300  7841     1294.0000    78     1322.0000     1284.0000  1025577    2.87%
  10400  7930     1295.0000    82     1322.0000     1284.0000  1070110    2.87%
  10500  8010     1298.0000    84     1322.0000     1284.0000  1077979    2.87%
  10600  8092     1299.0000    73     1322.0000     1284.0000  1084767    2.87%
  10700  8172     1303.0000    71     1322.0000     1284.0000  1091670    2.87%
  10800  8245     1303.0000    72     1322.0000     1284.0000  1097121    2.87%
  10900  8315     1305.0000    69     1322.0000     1284.0000  1102722    2.87%
  11000  8387     1308.0050    79     1322.0000     1284.0000  1109508    2.87%
Elapsed time = 3122.72 sec. (tree size = 153.23 MB, solutions = 12)
Nodefile size = 26.21 MB (14.83 MB after compression)
  11100  8452     1307.0000    67     1322.0000     1284.0000  1116270    2.87%
  11200  8525     1310.1177    65     1322.0000     1284.0000  1121300    2.87%
  11300  8603     1314.2354    71     1322.0000     1284.0000  1125182    2.87%
  11400  8665     1284.0000   417     1322.0000     1284.0000  1165983    2.87%
  11500  8761     1285.0000   170     1322.0000     1284.0000  1252019    2.87%
  11600  8860     1285.0000   189     1322.0000     1284.0000  1289725    2.87%
  11700  8955     1286.0000   121     1322.0000     1284.0000  1335943    2.87%
  11800  9054     1285.0000   147     1322.0000     1284.0000  1396346    2.87%
  11900  9153     1286.0000   152     1322.0000     1284.0000  1411430    2.87%
  12000  9251     1287.0000   177     1322.0000     1284.0000  1455828    2.87%
Elapsed time = 4242.22 sec. (tree size = 174.70 MB, solutions = 12)
Nodefile size = 47.34 MB (29.43 MB after compression)
  12100  9350     1288.0000   178     1322.0000     1284.0000  1474474    2.87%
  12200  9448     1287.0000   234     1322.0000     1284.0000  1513479    2.87%
  12300  9546     1289.0000   126     1322.0000     1284.0000  1536779    2.87%
  12400  9642     1286.0000   227     1322.0000     1284.0000  1596828    2.87%
  12500  9742     1286.0000   172     1322.0000     1284.0000  1609021    2.87%
  12600  9840     1287.0000   200     1322.0000     1284.0000  1654627    2.87%
  12700  9939     1288.0000   117     1322.0000     1284.0000  1663288    2.87%
  12800 10037     1287.0000   140     1322.0000     1284.0000  1692416    2.87%
  12900 10136     1288.0000   151     1322.0000     1284.0000  1711924    2.87%
  13000 10233     1288.0000   129     1322.0000     1284.0000  1749423    2.87%
Elapsed time = 5226.64 sec. (tree size = 199.69 MB, solutions = 12)
Nodefile size = 72.55 MB (43.64 MB after compression)
  13100 10332     1289.0000   113     1322.0000     1284.0000  1758165    2.87%
  13200 10427     1286.0000   200     1322.0000     1284.0000  1817370    2.87%
  13300 10523     1287.0000   120     1322.0000     1284.0000  1840758    2.87%
  13400 10621     1286.0000   247     1322.0000     1284.0000  1881849    2.87%
  13500 10718     1287.0000   160     1322.0000     1284.0000  1906213    2.87%
  13600 10816     1286.0000   153     1322.0000     1284.0000  1947619    2.87%
  13700 10915     1287.0000   145     1322.0000     1284.0000  1979746    2.87%
  13800 11013     1286.0000   218     1322.0000     1284.0000  2025796    2.87%
  13900 11112     1287.0000   140     1322.0000     1284.0000  2051051    2.87%
  14000 11209     1286.0000   125     1322.0000     1284.0000  2112124    2.87%
Elapsed time = 6488.86 sec. (tree size = 225.10 MB, solutions = 12)
Nodefile size = 97.69 MB (60.33 MB after compression)
  14100 11309     1286.0000   129     1322.0000     1284.0000  2121306    2.87%
  14200 11407     1286.0000   170     1322.0000     1284.0000  2165368    2.87%
  14300 11506     1287.0000   126     1322.0000     1284.0000  2183284    2.87%
  14400 11602     1287.0000   175     1322.0000     1284.0000  2224178    2.87%
  14500 11701     1287.0000   192     1322.0000     1284.0000  2252404    2.87%
  14600 11798     1287.0000   146     1322.0000     1284.0000  2291259    2.87%

Cover cuts applied:  1248
Gomory fractional cuts applied:  24

Solution pool: 12 solutions saved.

MIP - Time limit exceeded, integer feasible:  Objective = 1.3220000000e+003
Current MIP best bound = 1.2840000000e+003 (gap = 38, 2.87%)
Solution time = 7200.05 sec.  Iterations = 2310709  Nodes = 14679 (11876)


Incumbent solution
Variable Name           Solution Value
Cmax                       1322.000000
X_1_16                        1.000000
X_2_13                        1.000000
X_3_3                         1.000000
X_4_26                        1.000000
X_5_12                        1.000000
X_6_10                        1.000000
X_7_31                        1.000000
X_8_38                        1.000000
X_9_6                         1.000000
X_10_35                       1.000000
X_11_16                       1.000000
X_12_36                       1.000000
X_13_9                        1.000000
X_14_27                       1.000000
X_15_37                       1.000000
X_16_36                       1.000000
X_17_32                       1.000000
X_18_21                       1.000000
X_19_11                       1.000000
X_20_4                        1.000000
X_21_20                       1.000000
X_22_23                       1.000000
X_23_4                        1.000000
X_24_25                       1.000000
X_25_35                       1.000000
X_26_8                        1.000000
X_27_6                        1.000000
X_28_30                       1.000000
X_29_14                       1.000000
X_30_16                       1.000000
X_31_5                        1.000000
X_32_24                       1.000000
X_33_19                       1.000000
X_34_12                       1.000000
X_35_24                       1.000000
X_36_12                       1.000000
X_37_35                       1.000000
X_38_35                       1.000000
X_39_29                       1.000000
X_40_4                        1.000000
X_41_16                       1.000000
X_42_5                        1.000000
X_43_35                       1.000000
X_44_15                       1.000000
X_45_6                        1.000000
X_46_36                       1.000000
X_47_18                       1.000000
X_48_10                       1.000000
X_49_34                       1.000000
X_50_1                        1.000000
X_51_6                        1.000000
X_52_35                       1.000000
X_53_4                        1.000000
X_54_2                        1.000000
X_55_18                       1.000000
X_56_22                       1.000000
X_57_25                       1.000000
X_58_2                        1.000000
X_59_22                       1.000000
X_60_4                        1.000000
X_61_21                       1.000000
X_62_40                       1.000000
X_63_37                       1.000000
X_64_14                       1.000000
X_65_4                        1.000000
X_66_21                       1.000000
X_67_36                       1.000000
X_68_19                       1.000000
X_69_3                        1.000000
X_70_30                       1.000000
X_71_14                       1.000000
X_72_31                       1.000000
X_73_21                       1.000000
X_74_28                       1.000000
X_75_31                       1.000000
X_76_7                        1.000000
X_77_4                        1.000000
X_78_33                       1.000000
X_79_35                       1.000000
X_80_15                       1.000000
X_81_22                       1.000000
X_82_28                       1.000000
X_83_33                       1.000000
X_84_25                       1.000000
X_85_19                       1.000000
X_86_3                        1.000000
X_87_32                       1.000000
X_88_37                       1.000000
X_89_27                       1.000000
X_90_1                        1.000000
X_91_12                       1.000000
X_92_24                       1.000000
X_93_36                       1.000000
X_94_8                        1.000000
X_95_16                       1.000000
X_96_34                       1.000000
X_97_27                       1.000000
X_98_33                       1.000000
X_99_30                       1.000000
X_100_33                      1.000000
X_101_10                      1.000000
X_102_10                      1.000000
X_103_32                      1.000000
X_104_21                      1.000000
X_105_11                      1.000000
X_106_8                       1.000000
X_107_14                      1.000000
X_108_6                       1.000000
X_109_22                      1.000000
X_110_13                      1.000000
X_111_18                      1.000000
X_112_27                      1.000000
X_113_18                      1.000000
X_114_17                      1.000000
X_115_5                       1.000000
X_116_21                      1.000000
X_117_27                      1.000000
X_118_33                      1.000000
X_119_36                      1.000000
X_120_33                      1.000000
X_121_37                      1.000000
X_122_13                      1.000000
X_123_40                      1.000000
X_124_15                      1.000000
X_125_25                      1.000000
X_126_26                      1.000000
X_127_26                      1.000000
X_128_11                      1.000000
X_129_27                      1.000000
X_130_12                      1.000000
X_131_2                       1.000000
X_132_11                      1.000000
X_133_19                      1.000000
X_134_33                      1.000000
X_135_15                      1.000000
X_136_39                      1.000000
X_137_7                       1.000000
X_138_3                       1.000000
X_139_22                      1.000000
X_140_34                      1.000000
X_141_26                      1.000000
X_142_2                       1.000000
X_143_20                      1.000000
X_144_5                       1.000000
X_145_6                       1.000000
X_146_37                      1.000000
X_147_7                       1.000000
X_148_31                      1.000000
X_149_9                       1.000000
X_150_29                      1.000000
X_151_33                      1.000000
X_152_39                      1.000000
X_153_1                       1.000000
X_154_40                      1.000000
X_155_17                      1.000000
X_156_24                      1.000000
X_157_32                      1.000000
X_158_10                      1.000000
X_159_16                      1.000000
X_160_3                       1.000000
X_161_12                      1.000000
X_162_33                      1.000000
X_163_15                      1.000000
X_164_17                      1.000000
X_165_10                      1.000000
X_166_16                      1.000000
X_167_25                      1.000000
X_168_12                      1.000000
X_169_27                      1.000000
X_170_28                      1.000000
X_171_14                      1.000000
X_172_22                      1.000000
X_173_10                      1.000000
X_174_28                      1.000000
X_175_25                      1.000000
X_176_14                      1.000000
X_177_9                       1.000000
X_178_15                      1.000000
X_179_34                      1.000000
X_180_30                      1.000000
X_181_30                      1.000000
X_182_31                      1.000000
X_183_36                      1.000000
X_184_18                      1.000000
X_185_11                      1.000000
X_186_31                      1.000000
X_187_32                      1.000000
X_188_34                      1.000000
X_189_30                      1.000000
X_190_24                      1.000000
X_191_13                      1.000000
X_192_29                      1.000000
X_193_19                      1.000000
X_194_22                      1.000000
X_195_26                      1.000000
X_196_31                      1.000000
X_197_6                       1.000000
X_198_29                      1.000000
X_199_11                      1.000000
X_200_20                      1.000000
X_201_27                      1.000000
X_202_29                      1.000000
X_203_32                      1.000000
X_204_2                       1.000000
X_205_18                      1.000000
X_206_17                      1.000000
X_207_15                      1.000000
X_208_23                      1.000000
X_209_10                      1.000000
X_210_5                       1.000000
X_211_39                      1.000000
X_212_17                      1.000000
X_213_6                       1.000000
X_214_13                      1.000000
X_215_34                      1.000000
X_216_38                      1.000000
X_217_38                      1.000000
X_218_12                      1.000000
X_219_34                      1.000000
X_220_10                      1.000000
X_221_10                      1.000000
X_222_29                      1.000000
X_223_5                       1.000000
X_224_9                       1.000000
X_225_29                      1.000000
X_226_1                       1.000000
X_227_13                      1.000000
X_228_12                      1.000000
X_229_20                      1.000000
X_230_19                      1.000000
X_231_25                      1.000000
X_232_37                      1.000000
X_233_40                      1.000000
X_234_12                      1.000000
X_235_26                      1.000000
X_236_20                      1.000000
X_237_39                      1.000000
X_238_5                       1.000000
X_239_3                       1.000000
X_240_27                      1.000000
X_241_22                      1.000000
X_242_9                       1.000000
X_243_17                      1.000000
X_244_21                      1.000000
X_245_25                      1.000000
X_246_5                       1.000000
X_247_9                       1.000000
X_248_19                      1.000000
X_249_36                      1.000000
X_250_21                      1.000000
X_251_32                      1.000000
X_252_25                      1.000000
X_253_25                      1.000000
X_254_39                      1.000000
X_255_39                      1.000000
X_256_35                      1.000000
X_257_17                      1.000000
X_258_6                       1.000000
X_259_16                      1.000000
X_260_8                       1.000000
X_261_29                      1.000000
X_262_7                       1.000000
X_263_16                      1.000000
X_264_13                      1.000000
X_265_7                       1.000000
X_266_8                       1.000000
X_267_5                       1.000000
X_268_22                      1.000000
X_269_1                       1.000000
X_270_16                      1.000000
X_271_9                       1.000000
X_272_6                       1.000000
X_273_40                      1.000000
X_274_38                      1.000000
X_275_8                       1.000000
X_276_39                      1.000000
X_277_36                      1.000000
X_278_31                      1.000000
X_279_39                      1.000000
X_280_12                      1.000000
X_281_5                       1.000000
X_282_30                      1.000000
X_283_39                      1.000000
X_284_31                      1.000000
X_285_27                      1.000000
X_286_32                      1.000000
X_287_8                       1.000000
X_288_6                       1.000000
X_289_23                      1.000000
X_290_1                       1.000000
X_291_40                      1.000000
X_292_20                      1.000000
X_293_33                      1.000000
X_294_20                      1.000000
X_295_8                       1.000000
X_296_40                      1.000000
X_297_16                      1.000000
X_298_31                      1.000000
X_299_8                       1.000000
X_300_8                       1.000000
X_301_23                      1.000000
X_302_18                      1.000000
X_303_38                      1.000000
X_304_30                      1.000000
X_305_28                      1.000000
X_306_7                       1.000000
X_307_24                      1.000000
X_308_33                      1.000000
X_309_4                       1.000000
X_310_13                      1.000000
X_311_2                       1.000000
X_312_31                      1.000000
X_313_34                      1.000000
X_314_28                      1.000000
X_315_34                      1.000000
X_316_2                       1.000000
X_317_32                      1.000000
X_318_39                      1.000000
X_319_14                      1.000000
X_320_24                      1.000000
X_321_38                      1.000000
X_322_13                      1.000000
X_323_15                      1.000000
X_324_17                      1.000000
X_325_34                      1.000000
X_326_38                      1.000000
X_327_40                      1.000000
X_328_2                       1.000000
X_329_2                       1.000000
X_330_18                      1.000000
X_331_36                      1.000000
X_332_17                      1.000000
X_333_22                      1.000000
X_334_28                      1.000000
X_335_15                      1.000000
X_336_21                      1.000000
X_337_14                      1.000000
X_338_38                      1.000000
X_339_24                      1.000000
X_340_20                      1.000000
X_341_24                      1.000000
X_342_23                      1.000000
X_343_4                       1.000000
X_344_1                       1.000000
X_345_7                       1.000000
X_346_26                      1.000000
X_347_39                      1.000000
X_348_38                      1.000000
X_349_23                      1.000000
X_350_7                       1.000000
X_351_23                      1.000000
X_352_17                      1.000000
X_353_19                      1.000000
X_354_23                      1.000000
X_355_24                      1.000000
X_356_11                      1.000000
X_357_3                       1.000000
X_358_12                      1.000000
X_359_2                       1.000000
X_360_15                      1.000000
X_361_2                       1.000000
X_362_32                      1.000000
X_363_25                      1.000000
X_364_29                      1.000000
X_365_27                      1.000000
X_366_13                      1.000000
X_367_25                      1.000000
X_368_9                       1.000000
X_369_18                      1.000000
X_370_35                      1.000000
X_371_14                      1.000000
X_372_11                      1.000000
X_373_21                      1.000000
X_374_24                      1.000000
X_375_8                       1.000000
X_376_28                      1.000000
X_377_13                      1.000000
X_378_27                      1.000000
X_379_22                      1.000000
X_380_3                       1.000000
X_381_12                      1.000000
X_382_14                      1.000000
X_383_37                      1.000000
X_384_26                      1.000000
X_385_17                      1.000000
X_386_1                       1.000000
X_387_38                      1.000000
X_388_38                      1.000000
X_389_39                      1.000000
X_390_33                      1.000000
X_391_31                      1.000000
X_392_5                       1.000000
X_393_24                      1.000000
X_394_29                      1.000000
X_395_35                      1.000000
X_396_11                      1.000000
X_397_26                      1.000000
X_398_23                      1.000000
X_399_4                       1.000000
X_400_20                      1.000000
X_401_38                      1.000000
X_402_21                      1.000000
X_403_7                       1.000000
X_404_19                      1.000000
X_405_40                      1.000000
X_406_10                      1.000000
X_407_29                      1.000000
X_408_35                      1.000000
X_409_23                      1.000000
X_410_8                       1.000000
X_411_15                      1.000000
X_412_40                      1.000000
X_413_40                      1.000000
X_414_23                      1.000000
X_415_1                       1.000000
X_416_2                       1.000000
X_417_7                       1.000000
X_418_20                      1.000000
X_419_1                       1.000000
X_420_20                      1.000000
X_421_11                      1.000000
X_422_30                      1.000000
X_423_37                      1.000000
X_424_19                      1.000000
X_425_38                      1.000000
X_426_28                      1.000000
X_427_5                       1.000000
X_428_13                      1.000000
X_429_18                      1.000000
X_430_4                       1.000000
X_431_1                       1.000000
X_432_9                       1.000000
X_433_34                      1.000000
X_434_9                       1.000000
X_435_29                      1.000000
X_436_19                      1.000000
X_437_13                      1.000000
X_438_10                      1.000000
X_439_18                      1.000000
X_440_23                      1.000000
X_441_17                      1.000000
X_442_9                       1.000000
X_443_21                      1.000000
X_444_10                      1.000000
X_445_28                      1.000000
X_446_26                      1.000000
X_447_32                      1.000000
X_448_36                      1.000000
X_449_29                      1.000000
X_450_4                       1.000000
X_451_30                      1.000000
X_452_28                      1.000000
X_453_32                      1.000000
X_454_22                      1.000000
X_455_32                      1.000000
X_456_24                      1.000000
X_457_2                       1.000000
X_458_19                      1.000000
X_459_16                      1.000000
X_460_22                      1.000000
X_461_36                      1.000000
X_462_6                       1.000000
X_463_21                      1.000000
X_464_28                      1.000000
X_465_9                       1.000000
X_466_19                      1.000000
X_467_11                      1.000000
X_468_37                      1.000000
X_469_37                      1.000000
X_470_7                       1.000000
X_471_3                       1.000000
X_472_14                      1.000000
X_473_18                      1.000000
X_474_31                      1.000000
X_475_3                       1.000000
X_476_30                      1.000000
X_477_1                       1.000000
X_478_5                       1.000000
X_479_15                      1.000000
X_480_16                      1.000000
X_481_9                       1.000000
X_482_20                      1.000000
X_483_37                      1.000000
X_484_3                       1.000000
X_485_11                      1.000000
X_486_26                      1.000000
X_487_3                       1.000000
X_488_34                      1.000000
X_489_1                       1.000000
X_490_37                      1.000000
X_491_33                      1.000000
X_492_30                      1.000000
X_493_3                       1.000000
X_494_40                      1.000000
X_495_14                      1.000000
X_496_26                      1.000000
X_497_39                      1.000000
X_498_7                       1.000000
X_499_35                      1.000000
X_500_11                      1.000000
All other variables in the range 1-20001 are 0.
